QPLIB_2192
LGQ
minimize
290 # number of variables
270 # number of constraints
0.0 # default value for linear coefficients in objective
90 # number of non-default linear coefficients in objective
1 1.0
2 1.0
3 1.0
4 1.0
5 1.0
6 1.0
7 1.0
8 1.0
9 1.0
10 1.0
11 1.0
12 1.0
13 1.0
14 1.0
15 1.0
16 1.0
17 1.0
18 1.0
19 1.0
20 1.0
21 1.0
22 1.0
23 1.0
24 1.0
25 1.0
26 1.0
27 1.0
28 1.0
29 1.0
30 1.0
31 1.0
32 1.0
33 1.0
34 1.0
35 1.0
36 1.0
37 1.0
38 1.0
39 1.0
40 1.0
41 1.0
42 1.0
43 1.0
44 1.0
45 1.0
46 1.0
47 1.0
48 1.0
49 1.0
50 1.0
51 1.0
52 1.0
53 1.0
54 1.0
55 1.0
56 1.0
57 1.0
58 1.0
59 1.0
60 1.0
61 1.0
62 1.0
63 1.0
64 1.0
65 1.0
66 1.0
67 1.0
68 1.0
69 1.0
70 1.0
71 1.0
72 1.0
73 1.0
74 1.0
75 1.0
76 1.0
77 1.0
78 1.0
79 1.0
80 1.0
81 1.0
82 1.0
83 1.0
84 1.0
85 1.0
86 1.0
87 1.0
88 1.0
89 1.0
90 1.0
0.0 # objective constant
90 # number of quadratic terms in all constraints
181 1663070068 1651076122 2.0
182 1852403556 824206179 2.0
183 1768711012 12321 2.0
184 775173731 1 2.0
185 1646292852 1 2.0
186 824209008 1 2.0
187 12321 50 2.0
188 1 1 2.0
189 1651076122 39321601 2.0
190 1852403556 1 2.0
191 1768711012 50 2.0
192 775173731 1 2.0
193 1651076122 1646292852 2.0
194 1852403556 824209008 2.0
195 1768711012 12321 2.0
196 775173731 1 2.0
197 1663070068 39321601 2.0
198 824206179 1 2.0
199 12321 50 2.0
200 1 1 2.0
201 1651076122 193 2.0
202 1852403556 1 2.0
203 1768711012 50 2.0
204 775173731 1 2.0
205 1663070068 1651076122 2.0
206 1852403556 824206179 2.0
207 1768711012 12321 2.0
208 775173731 1 2.0
209 1663070068 193 2.0
210 824210800 1 2.0
211 50 -798937055 2.0
212 32686 1 2.0
213 1651076122 1 2.0
214 1852403556 1 2.0
215 1768711012 50 2.0
216 775173731 1 2.0
217 1663070068 1651076122 2.0
218 1852403556 824210800 2.0
219 1768711012 -798937055 2.0
220 775173731 32686 2.0
221 1763733364 1 2.0
222 824209265 1 2.0
223 12321 50 2.0
224 1 1 2.0
225 1651076122 1 2.0
226 1852403556 1 2.0
227 1768711012 50 2.0
228 775173731 1 2.0
229 1763733364 1651076122 2.0
230 1852403556 824209265 2.0
231 1768711012 12321 2.0
232 775173731 1 2.0
233 1864396660 1 2.0
234 824205172 1 2.0
235 12321 50 2.0
236 1 1 2.0
237 1651076122 1 2.0
238 1852403556 1 2.0
239 1768711012 50 2.0
240 775173731 1 2.0
241 1864396660 1651076122 2.0
242 1852403556 824205172 2.0
243 1768711012 12321 2.0
244 775173731 1 2.0
245 1931505524 1 2.0
246 824209508 1 2.0
247 50 -798936799 2.0
248 32686 1 2.0
249 1651076122 385 2.0
250 1852403556 1 2.0
251 1768711012 50 2.0
252 775173731 1 2.0
253 1931505524 1651076121 2.0
254 1684959076 824209508 2.0
255 1651076196 -798936799 2.0
256 1932407863 32686 2.0
257 1868767344 385 2.0
258 540090479 1 2.0
259 50 50 2.0
260 1 1 2.0
261 1651076121 39367153 2.0
262 1684959076 1 2.0
263 1651076196 50 2.0
264 1932407863 1 2.0
265 1868767344 1651076121 2.0
266 1684959076 540090479 2.0
267 1651076196 50 2.0
268 1932407863 1 2.0
269 1868767344 39367153 2.0
270 540090479 1 2.0
2052 # number of linear terms in all constraints
1 91 -66.0
1 92 49.0
1 93 -81.0
1 94 73.0
1 95 15.0
1 96 56.0
1 97 38.0
1 98 -26.0
1 99 74.0
1 100 48.0
1 101 -11.0
1 102 -29.0
1 103 46.0
1 104 -48.0
1 105 -21.0
1 106 55.0
1 107 68.0
1 108 14.0
1 109 42.0
1 110 -84.0
1 111 -1.0
2 91 -78.0
2 92 8.0
2 93 -22.0
2 94 13.0
2 95 91.0
2 96 73.0
2 97 -68.0
2 98 -45.0
2 99 -48.0
2 100 84.0
2 101 -13.0
2 102 57.0
2 103 -75.0
2 104 -84.0
2 105 88.0
2 106 -95.0
2 107 -70.0
2 108 -24.0
2 109 -69.0
2 110 5.0
2 112 -1.0
3 91 -14.0
3 92 -47.0
3 93 -37.0
3 94 53.0
3 95 -79.0
3 96 53.0
3 97 40.0
3 98 -57.0
3 99 52.0
3 100 -18.0
3 101 29.0
3 102 85.0
3 104 37.0
3 105 -13.0
3 106 21.0
3 107 14.0
3 108 26.0
3 109 -7.0
3 110 26.0
3 113 -1.0
4 91 92.0
4 92 -71.0
4 93 -11.0
4 94 -35.0
4 95 90.0
4 96 -29.0
4 97 -20.0
4 98 -80.0
4 99 90.0
4 100 96.0
4 101 14.0
4 102 73.0
4 103 -70.0
4 104 81.0
4 105 29.0
4 106 -88.0
4 107 90.0
4 108 93.0
4 109 56.0
4 110 60.0
4 114 -1.0
5 91 -44.0
5 92 92.0
5 93 15.0
5 94 -13.0
5 95 -25.0
5 96 84.0
5 97 -95.0
5 98 53.0
5 99 44.0
5 100 17.0
5 101 -15.0
5 102 28.0
5 103 49.0
5 104 -87.0
5 105 -90.0
5 106 54.0
5 107 40.0
5 108 -76.0
5 109 -40.0
5 110 -86.0
5 115 -1.0
6 91 -27.0
6 92 45.0
6 93 -61.0
6 94 -69.0
6 95 -68.0
6 96 66.0
6 97 9.0
6 98 -37.0
6 99 5.0
6 100 -13.0
6 101 -58.0
6 102 45.0
6 103 -100.0
6 104 16.0
6 105 -5.0
6 106 87.0
6 107 52.0
6 108 -75.0
6 109 -98.0
6 116 -1.0
7 91 70.0
7 92 -82.0
7 93 71.0
7 94 57.0
7 95 15.0
7 96 -81.0
7 97 65.0
7 98 49.0
7 99 81.0
7 100 1.0
7 101 76.0
7 102 92.0
7 103 12.0
7 104 -5.0
7 105 -17.0
7 106 29.0
7 107 75.0
7 108 16.0
7 109 -56.0
7 110 99.0
7 117 -1.0
8 91 38.0
8 92 40.0
8 93 97.0
8 94 29.0
8 95 30.0
8 96 68.0
8 97 36.0
8 98 93.0
8 99 -34.0
8 100 59.0
8 101 -68.0
8 102 72.0
8 103 20.0
8 104 -16.0
8 105 96.0
8 106 73.0
8 107 -7.0
8 108 -51.0
8 109 68.0
8 110 68.0
8 118 -1.0
9 91 -74.0
9 92 -5.0
9 93 56.0
9 95 13.0
9 96 -11.0
9 97 -93.0
9 98 -34.0
9 99 -15.0
9 100 16.0
9 101 -83.0
9 102 34.0
9 103 17.0
9 104 -53.0
9 105 48.0
9 106 91.0
9 107 72.0
9 108 -86.0
9 109 7.0
9 110 -24.0
9 119 -1.0
10 91 43.0
10 92 -90.0
10 93 -96.0
10 94 51.0
10 95 25.0
10 96 86.0
10 97 9.0
10 98 -17.0
10 99 -22.0
10 100 -61.0
10 101 -39.0
10 102 -58.0
10 103 21.0
10 104 -26.0
10 105 -68.0
10 106 -8.0
10 107 60.0
10 108 -64.0
10 109 43.0
10 110 -5.0
10 120 -1.0
11 91 26.0
11 92 -52.0
11 93 -76.0
11 94 74.0
11 95 -80.0
11 96 50.0
11 97 -24.0
11 98 10.0
11 99 -85.0
11 100 -25.0
11 101 24.0
11 102 57.0
11 103 -16.0
11 104 64.0
11 105 9.0
11 106 45.0
11 107 -2.0
11 108 -48.0
11 110 -2.0
11 121 -1.0
12 91 69.0
12 92 83.0
12 93 -28.0
12 94 8.0
12 95 20.0
12 96 21.0
12 97 -12.0
12 98 41.0
12 99 -57.0
12 100 52.0
12 101 -39.0
12 102 57.0
12 103 -82.0
12 104 79.0
12 105 86.0
12 106 93.0
12 107 23.0
12 108 -87.0
12 109 -78.0
12 110 25.0
12 122 -1.0
13 91 11.0
13 92 -53.0
13 93 22.0
13 94 86.0
13 95 13.0
13 96 14.0
13 97 -7.0
13 98 -76.0
13 99 -53.0
13 100 99.0
13 101 11.0
13 102 72.0
13 103 -43.0
13 104 45.0
13 105 64.0
13 106 -2.0
13 107 18.0
13 108 -78.0
13 109 -69.0
13 110 39.0
13 123 -1.0
14 91 76.0
14 92 -14.0
14 93 -58.0
14 94 -64.0
14 95 37.0
14 96 -57.0
14 97 -47.0
14 98 -56.0
14 99 -1.0
14 100 -47.0
14 101 -11.0
14 102 -53.0
14 103 -41.0
14 104 29.0
14 105 49.0
14 106 38.0
14 107 -15.0
14 108 51.0
14 109 -20.0
14 110 -25.0
14 124 -1.0
15 91 6.0
15 92 79.0
15 93 30.0
15 94 86.0
15 95 -99.0
15 96 -66.0
15 97 28.0
15 98 52.0
15 99 34.0
15 100 53.0
15 101 50.0
15 102 79.0
15 103 -57.0
15 104 26.0
15 105 19.0
15 106 24.0
15 107 -27.0
15 108 -86.0
15 109 -50.0
15 110 -28.0
15 125 -1.0
16 92 -42.0
16 93 -53.0
16 94 32.0
16 95 79.0
16 96 33.0
16 97 -92.0
16 98 67.0
16 99 13.0
16 100 -64.0
16 101 -95.0
16 102 -5.0
16 103 12.0
16 104 -67.0
16 105 21.0
16 106 28.0
16 107 -39.0
16 108 91.0
16 109 52.0
16 110 26.0
16 126 -1.0
17 91 -74.0
17 92 51.0
17 93 -4.0
17 94 42.0
17 95 -77.0
17 96 27.0
17 97 -20.0
17 98 40.0
17 99 56.0
17 100 40.0
17 101 -47.0
17 102 55.0
17 103 -74.0
17 104 -45.0
17 105 -84.0
17 106 -58.0
17 107 -61.0
17 108 23.0
17 109 20.0
17 110 9.0
17 127 -1.0
18 91 -75.0
18 92 -86.0
18 93 76.0
18 94 -70.0
18 95 12.0
18 96 -37.0
18 97 -33.0
18 98 -59.0
18 99 34.0
18 100 -93.0
18 101 -92.0
18 102 63.0
18 103 -88.0
18 104 41.0
18 105 -18.0
18 106 77.0
18 107 87.0
18 108 -100.0
18 109 -30.0
18 110 87.0
18 128 -1.0
19 91 -28.0
19 92 95.0
19 93 -95.0
19 94 -32.0
19 95 69.0
19 96 -12.0
19 97 40.0
19 98 13.0
19 99 -80.0
19 100 -64.0
19 101 -52.0
19 102 36.0
19 103 97.0
19 104 2.0
19 105 80.0
19 106 -7.0
19 107 -5.0
19 108 -19.0
19 109 51.0
19 110 -77.0
19 129 -1.0
20 91 39.0
20 92 -48.0
20 93 5.0
20 94 -87.0
20 95 -71.0
20 96 -18.0
20 97 -84.0
20 98 27.0
20 99 -97.0
20 100 -52.0
20 101 15.0
20 102 -68.0
20 103 -47.0
20 104 -85.0
20 105 -71.0
20 106 -83.0
20 107 -72.0
20 108 -6.0
20 109 44.0
20 110 -5.0
20 130 -1.0
21 91 -1.0
21 92 -84.0
21 93 -41.0
21 94 -41.0
21 95 -34.0
21 96 -83.0
21 97 -81.0
21 98 -60.0
21 99 -79.0
21 100 -66.0
21 101 66.0
21 102 65.0
21 103 84.0
21 104 6.0
21 105 -6.0
21 106 39.0
21 107 1.0
21 108 53.0
21 109 96.0
21 110 -7.0
21 131 -1.0
22 91 78.0
22 92 70.0
22 93 50.0
22 94 42.0
22 95 -83.0
22 96 59.0
22 97 -25.0
22 98 -9.0
22 99 -27.0
22 100 55.0
22 101 19.0
22 102 -89.0
22 103 -76.0
22 104 11.0
22 105 30.0
22 106 -88.0
22 107 4.0
22 108 68.0
22 109 -69.0
22 110 -100.0
22 132 -1.0
23 91 -57.0
23 92 -63.0
23 93 93.0
23 94 63.0
23 95 41.0
23 96 17.0
23 97 35.0
23 98 54.0
23 99 -54.0
23 100 -57.0
23 101 -26.0
23 102 64.0
23 103 -68.0
23 104 22.0
23 105 -76.0
23 106 -13.0
23 107 -100.0
23 108 3.0
23 109 -8.0
23 110 37.0
23 133 -1.0
24 91 -19.0
24 93 -44.0
24 94 99.0
24 95 -27.0
24 96 -26.0
24 97 90.0
24 98 -84.0
24 99 22.0
24 100 58.0
24 101 -29.0
24 102 94.0
24 103 -64.0
24 104 -14.0
24 105 56.0
24 106 -77.0
24 107 6.0
24 108 -52.0
24 109 22.0
24 110 55.0
24 134 -1.0
25 91 -2.0
25 92 86.0
25 93 -37.0
25 94 -28.0
25 95 -80.0
25 96 -26.0
25 97 77.0
25 98 78.0
25 99 97.0
25 100 -79.0
25 101 -70.0
25 102 87.0
25 103 56.0
25 104 75.0
25 105 -48.0
25 106 -75.0
25 107 7.0
25 108 -31.0
25 109 -23.0
25 110 -26.0
25 135 -1.0
26 91 45.0
26 92 86.0
26 93 -1.0
26 94 -5.0
26 95 91.0
26 96 -40.0
26 97 -10.0
26 98 64.0
26 99 -24.0
26 100 45.0
26 101 -31.0
26 102 31.0
26 103 72.0
26 104 32.0
26 105 60.0
26 106 85.0
26 107 -36.0
26 108 -5.0
26 109 13.0
26 110 -15.0
26 136 -1.0
27 91 -83.0
27 92 -15.0
27 93 -38.0
27 94 39.0
27 95 -29.0
27 96 6.0
27 97 -78.0
27 98 47.0
27 99 85.0
27 100 -72.0
27 101 88.0
27 102 -96.0
27 103 -20.0
27 104 -60.0
27 105 -80.0
27 106 -93.0
27 107 -19.0
27 108 -11.0
27 109 36.0
27 110 -49.0
27 137 -1.0
28 91 -81.0
28 92 29.0
28 93 1.0
28 95 -69.0
28 96 26.0
28 97 -79.0
28 98 -58.0
28 99 77.0
28 100 97.0
28 101 -97.0
28 102 72.0
28 103 -76.0
28 104 -74.0
28 105 13.0
28 106 -74.0
28 107 72.0
28 108 8.0
28 109 -11.0
28 110 -37.0
28 138 -1.0
29 91 93.0
29 92 61.0
29 93 44.0
29 94 68.0
29 95 86.0
29 96 -77.0
29 97 -7.0
29 98 -22.0
29 99 -24.0
29 100 -50.0
29 101 -74.0
29 102 24.0
29 103 23.0
29 104 -2.0
29 105 3.0
29 106 56.0
29 107 -45.0
29 108 -15.0
29 109 -79.0
29 110 -54.0
29 139 -1.0
30 91 15.0
30 92 62.0
30 93 56.0
30 94 41.0
30 95 -32.0
30 96 87.0
30 97 -59.0
30 98 44.0
30 99 66.0
30 100 -31.0
30 101 -35.0
30 102 -32.0
30 103 5.0
30 104 10.0
30 105 -97.0
30 106 -9.0
30 108 -50.0
30 109 1.0
30 110 -52.0
30 140 -1.0
31 91 -41.0
31 92 82.0
31 93 13.0
31 94 -41.0
31 95 -3.0
31 96 -72.0
31 97 28.0
31 98 -74.0
31 99 64.0
31 100 2.0
31 101 -19.0
31 102 -69.0
31 103 43.0
31 104 -4.0
31 105 43.0
31 106 70.0
31 107 67.0
31 108 -5.0
31 109 82.0
31 110 -84.0
31 141 -1.0
32 91 35.0
32 92 53.0
32 93 82.0
32 94 -14.0
32 95 71.0
32 96 -30.0
32 97 33.0
32 98 -57.0
32 99 -2.0
32 100 -60.0
32 101 -18.0
32 102 -23.0
32 103 73.0
32 104 -22.0
32 105 53.0
32 106 12.0
32 107 -25.0
32 108 81.0
32 109 69.0
32 110 -44.0
32 142 -1.0
33 91 94.0
33 92 52.0
33 93 -68.0
33 94 -64.0
33 95 3.0
33 96 -38.0
33 97 96.0
33 98 43.0
33 99 15.0
33 100 -16.0
33 101 -17.0
33 102 -59.0
33 103 90.0
33 104 76.0
33 105 -99.0
33 106 -84.0
33 107 -42.0
33 108 73.0
33 109 95.0
33 110 28.0
33 143 -1.0
34 91 73.0
34 92 -37.0
34 93 98.0
34 94 -85.0
34 95 -45.0
34 96 66.0
34 97 -94.0
34 98 52.0
34 99 -23.0
34 100 -54.0
34 101 -90.0
34 102 -34.0
34 103 95.0
34 104 49.0
34 105 19.0
34 106 23.0
34 107 22.0
34 108 13.0
34 109 -34.0
34 110 22.0
34 144 -1.0
35 91 46.0
35 92 -96.0
35 93 -23.0
35 94 22.0
35 95 19.0
35 96 87.0
35 97 57.0
35 98 63.0
35 99 64.0
35 100 22.0
35 101 -38.0
35 102 63.0
35 103 -92.0
35 104 -62.0
35 105 16.0
35 106 -65.0
35 107 -12.0
35 109 1.0
35 110 -7.0
35 145 -1.0
36 91 -67.0
36 92 50.0
36 93 -15.0
36 94 14.0
36 95 69.0
36 96 58.0
36 97 -75.0
36 98 85.0
36 99 15.0
36 100 -11.0
36 101 31.0
36 102 -55.0
36 103 -93.0
36 104 -34.0
36 105 -81.0
36 106 -18.0
36 107 34.0
36 108 5.0
36 109 -87.0
36 110 63.0
36 146 -1.0
37 91 -38.0
37 92 79.0
37 93 -71.0
37 94 -67.0
37 95 68.0
37 96 -96.0
37 97 98.0
37 98 11.0
37 99 16.0
37 100 -39.0
37 101 -74.0
37 102 90.0
37 103 -81.0
37 104 -75.0
37 105 6.0
37 106 -22.0
37 107 -57.0
37 108 -21.0
37 109 -61.0
37 110 92.0
37 147 -1.0
38 91 41.0
38 92 -33.0
38 93 64.0
38 94 7.0
38 95 54.0
38 96 -93.0
38 97 87.0
38 98 55.0
38 99 -9.0
38 100 84.0
38 101 -75.0
38 102 -88.0
38 103 79.0
38 104 -49.0
38 105 79.0
38 106 -25.0
38 107 -97.0
38 108 15.0
38 109 20.0
38 110 -88.0
38 148 -1.0
39 91 56.0
39 92 -14.0
39 93 -71.0
39 94 -59.0
39 95 83.0
39 96 47.0
39 97 -50.0
39 98 -42.0
39 99 -69.0
39 100 92.0
39 101 68.0
39 102 -64.0
39 103 35.0
39 104 -35.0
39 105 -67.0
39 106 58.0
39 107 34.0
39 108 35.0
39 109 -51.0
39 110 -54.0
39 149 -1.0
40 91 -38.0
40 92 -27.0
40 93 69.0
40 94 72.0
40 95 50.0
40 96 -77.0
40 97 -55.0
40 98 95.0
40 99 -92.0
40 100 19.0
40 101 3.0
40 102 -19.0
40 103 -61.0
40 104 34.0
40 105 2.0
40 106 56.0
40 107 -6.0
40 108 -49.0
40 109 -76.0
40 110 26.0
40 150 -1.0
41 91 6.0
41 92 -76.0
41 93 -50.0
41 94 -95.0
41 95 -25.0
41 96 -50.0
41 97 21.0
41 98 -96.0
41 99 -96.0
41 100 -46.0
41 101 88.0
41 102 48.0
41 103 2.0
41 104 -48.0
41 105 94.0
41 106 32.0
41 107 66.0
41 108 -91.0
41 109 7.0
41 110 -34.0
41 151 -1.0
42 91 -77.0
42 92 -65.0
42 93 93.0
42 94 65.0
42 95 22.0
42 96 34.0
42 97 -98.0
42 98 99.0
42 99 -73.0
42 100 -93.0
42 101 -14.0
42 102 49.0
42 103 54.0
42 104 23.0
42 105 -93.0
42 106 -63.0
42 107 -87.0
42 108 -22.0
42 109 16.0
42 110 99.0
42 152 -1.0
43 91 -70.0
43 92 67.0
43 93 -18.0
43 94 -88.0
43 95 -70.0
43 96 80.0
43 97 39.0
43 98 -11.0
43 99 -49.0
43 100 -62.0
43 101 -32.0
43 102 46.0
43 103 -31.0
43 104 69.0
43 105 -47.0
43 106 23.0
43 107 -78.0
43 108 45.0
43 109 -66.0
43 110 -94.0
43 153 -1.0
44 91 -67.0
44 92 31.0
44 93 -29.0
44 94 -5.0
44 95 5.0
44 96 94.0
44 97 77.0
44 98 -42.0
44 99 63.0
44 100 -36.0
44 101 -70.0
44 102 37.0
44 103 45.0
44 104 -86.0
44 105 49.0
44 106 -22.0
44 107 95.0
44 108 3.0
44 109 -19.0
44 154 -1.0
45 91 54.0
45 92 72.0
45 93 45.0
45 94 61.0
45 95 3.0
45 96 -7.0
45 97 -22.0
45 98 52.0
45 99 -8.0
45 100 71.0
45 101 -61.0
45 102 87.0
45 103 -9.0
45 104 -28.0
45 105 -65.0
45 106 -71.0
45 107 -53.0
45 108 13.0
45 109 -1.0
45 110 52.0
45 155 -1.0
46 91 61.0
46 92 47.0
46 93 44.0
46 94 82.0
46 95 -62.0
46 96 -21.0
46 97 -80.0
46 98 -77.0
46 99 -67.0
46 100 86.0
46 101 -62.0
46 102 64.0
46 103 83.0
46 104 -66.0
46 105 79.0
46 106 -59.0
46 107 -96.0
46 108 -67.0
46 109 -61.0
46 110 37.0
46 156 -1.0
47 91 -84.0
47 92 -61.0
47 93 45.0
47 94 67.0
47 95 33.0
47 96 59.0
47 97 -93.0
47 98 46.0
47 99 -4.0
47 100 64.0
47 101 50.0
47 102 51.0
47 103 -52.0
47 104 -45.0
47 105 -23.0
47 106 34.0
47 107 33.0
47 108 56.0
47 109 -35.0
47 110 45.0
47 157 -1.0
48 91 -63.0
48 92 -25.0
48 93 10.0
48 94 9.0
48 95 34.0
48 96 -10.0
48 97 14.0
48 98 -27.0
48 99 94.0
48 100 17.0
48 101 73.0
48 102 -95.0
48 103 -93.0
48 104 49.0
48 105 -59.0
48 106 -29.0
48 107 -29.0
48 108 29.0
48 109 74.0
48 110 -57.0
48 158 -1.0
49 91 59.0
49 92 -93.0
49 93 -24.0
49 94 99.0
49 95 -6.0
49 96 17.0
49 97 -97.0
49 98 98.0
49 99 -70.0
49 100 -90.0
49 101 -71.0
49 102 99.0
49 103 -59.0
49 104 41.0
49 105 45.0
49 106 -31.0
49 107 -85.0
49 108 -53.0
49 109 76.0
49 110 -78.0
49 159 -1.0
50 91 -26.0
50 92 -35.0
50 93 -27.0
50 94 -79.0
50 95 -93.0
50 96 -21.0
50 97 52.0
50 98 85.0
50 99 6.0
50 100 5.0
50 101 -95.0
50 102 -77.0
50 103 -14.0
50 104 -81.0
50 105 -62.0
50 106 -8.0
50 107 -33.0
50 108 76.0
50 109 -15.0
50 110 14.0
50 160 -1.0
51 91 -26.0
51 92 -28.0
51 93 -70.0
51 94 -96.0
51 95 98.0
51 96 -67.0
51 97 -76.0
51 98 33.0
51 99 16.0
51 100 45.0
51 101 -37.0
51 102 -30.0
51 103 -10.0
51 104 -20.0
51 105 -39.0
51 106 -24.0
51 107 79.0
51 108 -81.0
51 109 71.0
51 110 -86.0
51 161 -1.0
52 91 -63.0
52 92 23.0
52 93 16.0
52 94 -58.0
52 95 -9.0
52 96 21.0
52 97 86.0
52 98 -89.0
52 99 -19.0
52 101 -7.0
52 102 46.0
52 103 78.0
52 104 40.0
52 105 -86.0
52 106 2.0
52 107 1.0
52 108 -89.0
52 109 50.0
52 110 -80.0
52 162 -1.0
53 91 81.0
53 92 73.0
53 93 -26.0
53 94 -95.0
53 95 40.0
53 96 -91.0
53 97 16.0
53 98 88.0
53 99 70.0
53 100 -10.0
53 101 13.0
53 102 61.0
53 103 23.0
53 104 -43.0
53 105 5.0
53 106 55.0
53 107 -85.0
53 108 54.0
53 109 -51.0
53 110 63.0
53 163 -1.0
54 91 -84.0
54 92 -64.0
54 93 -23.0
54 94 17.0
54 95 72.0
54 96 -50.0
54 97 -55.0
54 98 -38.0
54 99 14.0
54 100 87.0
54 101 42.0
54 102 -48.0
54 103 -83.0
54 104 95.0
54 105 2.0
54 106 -30.0
54 107 -8.0
54 108 -29.0
54 109 59.0
54 110 -56.0
54 164 -1.0
55 91 -68.0
55 92 -6.0
55 93 -23.0
55 94 -33.0
55 95 11.0
55 96 39.0
55 97 52.0
55 98 -75.0
55 99 -99.0
55 100 37.0
55 101 52.0
55 102 -48.0
55 103 -73.0
55 104 -34.0
55 105 54.0
55 106 -55.0
55 107 78.0
55 108 26.0
55 109 14.0
55 110 -31.0
55 165 -1.0
56 91 41.0
56 92 -85.0
56 93 -34.0
56 94 -70.0
56 95 -87.0
56 96 -47.0
56 97 -13.0
56 98 -46.0
56 99 58.0
56 100 -27.0
56 101 -96.0
56 102 6.0
56 103 -86.0
56 104 59.0
56 105 17.0
56 106 -54.0
56 107 99.0
56 108 -18.0
56 109 55.0
56 110 9.0
56 166 -1.0
57 91 -88.0
57 92 64.0
57 93 24.0
57 94 -93.0
57 95 -9.0
57 96 -7.0
57 97 -52.0
57 98 67.0
57 99 -37.0
57 100 30.0
57 101 25.0
57 102 83.0
57 103 29.0
57 104 2.0
57 105 85.0
57 106 42.0
57 107 9.0
57 108 2.0
57 109 -5.0
57 110 -25.0
57 167 -1.0
58 91 -3.0
58 92 -81.0
58 93 -19.0
58 94 -15.0
58 95 18.0
58 96 -60.0
58 97 -18.0
58 98 13.0
58 99 -17.0
58 100 77.0
58 101 -56.0
58 102 33.0
58 103 60.0
58 104 16.0
58 105 94.0
58 107 63.0
58 108 21.0
58 109 37.0
58 110 -69.0
58 168 -1.0
59 91 94.0
59 92 -31.0
59 93 29.0
59 94 5.0
59 95 -45.0
59 96 -90.0
59 97 84.0
59 98 -39.0
59 99 9.0
59 100 -25.0
59 101 -80.0
59 102 -15.0
59 104 33.0
59 105 42.0
59 106 -24.0
59 107 -64.0
59 108 78.0
59 109 82.0
59 110 -69.0
59 169 -1.0
60 91 -79.0
60 92 -28.0
60 93 -100.0
60 94 76.0
60 95 37.0
60 96 69.0
60 97 -38.0
60 98 40.0
60 99 99.0
60 100 -13.0
60 101 -4.0
60 102 79.0
60 103 16.0
60 104 9.0
60 105 -84.0
60 106 97.0
60 107 -28.0
60 108 -67.0
60 109 -42.0
60 110 53.0
60 170 -1.0
61 91 6.0
61 92 -18.0
61 93 36.0
61 94 1.0
61 95 26.0
61 96 68.0
61 97 71.0
61 98 78.0
61 99 -31.0
61 100 57.0
61 101 17.0
61 102 -56.0
61 103 5.0
61 104 -54.0
61 105 -5.0
61 106 -100.0
61 107 -36.0
61 108 -38.0
61 109 -1.0
61 110 -5.0
61 171 -1.0
62 91 74.0
62 92 -36.0
62 93 -42.0
62 94 -84.0
62 95 -6.0
62 96 -63.0
62 97 8.0
62 98 87.0
62 99 32.0
62 100 63.0
62 101 -61.0
62 102 49.0
62 103 85.0
62 104 -60.0
62 105 97.0
62 106 -23.0
62 107 -36.0
62 108 59.0
62 109 -57.0
62 110 -6.0
62 172 -1.0
63 91 12.0
63 92 41.0
63 93 -67.0
63 94 67.0
63 95 -51.0
63 96 47.0
63 97 -3.0
63 98 2.0
63 99 14.0
63 100 77.0
63 101 47.0
63 102 51.0
63 103 87.0
63 104 -5.0
63 105 -38.0
63 106 56.0
63 107 91.0
63 108 -22.0
63 109 -3.0
63 110 37.0
63 173 -1.0
64 91 -94.0
64 92 -68.0
64 93 21.0
64 94 -56.0
64 95 -93.0
64 96 14.0
64 97 44.0
64 98 93.0
64 99 69.0
64 100 75.0
64 101 17.0
64 102 -11.0
64 103 61.0
64 104 89.0
64 105 98.0
64 106 -90.0
64 107 41.0
64 108 76.0
64 109 32.0
64 110 -2.0
64 174 -1.0
65 91 -61.0
65 92 -95.0
65 93 -9.0
65 94 -87.0
65 95 56.0
65 96 -83.0
65 97 11.0
65 98 48.0
65 99 50.0
65 100 99.0
65 101 -54.0
65 102 -30.0
65 103 -45.0
65 104 24.0
65 105 69.0
65 106 78.0
65 107 -6.0
65 108 69.0
65 109 -43.0
65 110 -25.0
65 175 -1.0
66 91 14.0
66 92 -17.0
66 93 14.0
66 94 -99.0
66 95 -60.0
66 96 -21.0
66 97 -38.0
66 98 -49.0
66 99 24.0
66 100 19.0
66 101 -30.0
66 102 -92.0
66 103 7.0
66 104 -80.0
66 105 -42.0
66 106 -50.0
66 107 98.0
66 108 58.0
66 109 97.0
66 110 -15.0
66 176 -1.0
67 91 -67.0
67 92 -21.0
67 93 55.0
67 94 11.0
67 95 -80.0
67 96 97.0
67 97 47.0
67 98 -42.0
67 99 36.0
67 100 -19.0
67 101 -14.0
67 102 -16.0
67 103 -85.0
67 104 -45.0
67 105 59.0
67 106 22.0
67 107 -37.0
67 108 -43.0
67 109 -51.0
67 110 -49.0
67 177 -1.0
68 91 46.0
68 92 20.0
68 93 -87.0
68 94 81.0
68 95 -49.0
68 96 -6.0
68 97 -57.0
68 98 88.0
68 99 -30.0
68 100 -47.0
68 101 -84.0
68 102 -13.0
68 103 78.0
68 104 -14.0
68 105 -18.0
68 106 -63.0
68 107 67.0
68 108 -59.0
68 110 -41.0
68 178 -1.0
69 91 93.0
69 92 -79.0
69 93 -73.0
69 94 57.0
69 95 29.0
69 96 5.0
69 97 86.0
69 98 -66.0
69 99 -99.0
69 100 25.0
69 101 -62.0
69 102 17.0
69 103 -65.0
69 104 20.0
69 105 -31.0
69 106 -14.0
69 107 22.0
69 108 9.0
69 109 71.0
69 110 23.0
69 179 -1.0
70 91 -54.0
70 92 -89.0
70 93 91.0
70 94 -84.0
70 95 -74.0
70 96 -4.0
70 97 -25.0
70 98 -71.0
70 99 -3.0
70 100 -77.0
70 101 -16.0
70 102 98.0
70 103 -47.0
70 104 -5.0
70 105 33.0
70 106 -12.0
70 107 44.0
70 108 -64.0
70 109 76.0
70 110 -39.0
70 180 -1.0
71 91 40.0
71 92 -79.0
71 93 -2.0
71 94 4.0
71 95 45.0
71 96 -38.0
71 97 45.0
71 98 54.0
71 99 29.0
71 100 28.0
71 101 -30.0
71 102 -76.0
71 103 10.0
71 104 -5.0
71 105 -9.0
71 106 -56.0
71 107 54.0
71 108 -46.0
71 109 16.0
71 110 14.0
71 181 -1.0
72 91 -72.0
72 92 5.0
72 93 -52.0
72 94 -85.0
72 95 -43.0
72 96 82.0
72 97 93.0
72 98 -62.0
72 99 90.0
72 100 16.0
72 101 -44.0
72 102 10.0
72 103 -74.0
72 104 -6.0
72 105 -65.0
72 106 84.0
72 107 87.0
72 108 58.0
72 109 -90.0
72 110 -9.0
72 182 -1.0
73 91 70.0
73 92 19.0
73 93 30.0
73 94 -30.0
73 95 -79.0
73 96 85.0
73 97 -56.0
73 98 47.0
73 99 -75.0
73 100 81.0
73 101 72.0
73 102 94.0
73 103 63.0
73 104 75.0
73 105 -36.0
73 106 10.0
73 107 -66.0
73 108 -33.0
73 109 78.0
73 110 89.0
73 183 -1.0
74 91 84.0
74 92 33.0
74 93 81.0
74 94 51.0
74 95 -40.0
74 96 68.0
74 97 32.0
74 98 69.0
74 99 -60.0
74 100 80.0
74 101 75.0
74 102 26.0
74 103 -93.0
74 104 -24.0
74 105 -60.0
74 106 -83.0
74 107 -3.0
74 108 12.0
74 109 -45.0
74 110 58.0
74 184 -1.0
75 91 -65.0
75 92 -24.0
75 93 -18.0
75 94 -6.0
75 95 -70.0
75 96 56.0
75 97 52.0
75 98 54.0
75 99 -51.0
75 100 10.0
75 101 -73.0
75 102 25.0
75 103 -93.0
75 104 -99.0
75 105 -1.0
75 106 70.0
75 107 -39.0
75 108 45.0
75 109 46.0
75 110 -9.0
75 185 -1.0
76 91 58.0
76 92 74.0
76 93 38.0
76 94 -84.0
76 95 87.0
76 96 66.0
76 97 81.0
76 98 -88.0
76 99 83.0
76 100 -22.0
76 101 58.0
76 102 47.0
76 103 -62.0
76 104 -70.0
76 105 -16.0
76 106 15.0
76 107 -83.0
76 108 93.0
76 109 -26.0
76 110 35.0
76 186 -1.0
77 91 -7.0
77 92 5.0
77 93 91.0
77 94 94.0
77 95 80.0
77 96 43.0
77 97 18.0
77 98 -82.0
77 99 74.0
77 100 -68.0
77 101 -51.0
77 102 74.0
77 103 9.0
77 104 -83.0
77 105 76.0
77 106 52.0
77 107 50.0
77 108 75.0
77 109 36.0
77 110 -11.0
77 187 -1.0
78 91 -40.0
78 92 36.0
78 93 -45.0
78 94 -15.0
78 95 -82.0
78 96 -84.0
78 97 88.0
78 98 32.0
78 99 91.0
78 100 -59.0
78 101 70.0
78 102 31.0
78 103 57.0
78 104 53.0
78 105 -54.0
78 106 -84.0
78 107 53.0
78 108 -19.0
78 109 -87.0
78 110 34.0
78 188 -1.0
79 91 97.0
79 92 88.0
79 93 25.0
79 94 71.0
79 95 -86.0
79 96 -83.0
79 97 -94.0
79 98 -60.0
79 99 -93.0
79 100 -88.0
79 101 -30.0
79 102 -51.0
79 103 57.0
79 104 -49.0
79 105 -43.0
79 106 -34.0
79 107 -34.0
79 108 -41.0
79 109 -17.0
79 110 -18.0
79 189 -1.0
80 91 -39.0
80 92 47.0
80 93 -96.0
80 94 14.0
80 95 33.0
80 96 26.0
80 97 67.0
80 98 11.0
80 99 -47.0
80 100 93.0
80 101 -1.0
80 102 -66.0
80 103 74.0
80 104 16.0
80 105 34.0
80 106 80.0
80 107 66.0
80 108 -80.0
80 109 -42.0
80 190 -1.0
81 91 56.0
81 92 -41.0
81 93 -100.0
81 94 51.0
81 95 78.0
81 96 -56.0
81 97 65.0
81 98 60.0
81 99 -72.0
81 100 -59.0
81 101 52.0
81 102 27.0
81 103 54.0
81 104 -98.0
81 105 -4.0
81 106 -2.0
81 107 6.0
81 108 -93.0
81 109 99.0
81 110 -46.0
81 191 -1.0
82 91 36.0
82 92 -23.0
82 93 -90.0
82 94 76.0
82 95 19.0
82 96 -35.0
82 97 33.0
82 98 -23.0
82 99 -50.0
82 100 -70.0
82 101 81.0
82 102 31.0
82 103 50.0
82 104 11.0
82 105 38.0
82 106 56.0
82 107 -4.0
82 108 70.0
82 109 28.0
82 110 92.0
82 192 -1.0
83 91 -86.0
83 92 -56.0
83 93 30.0
83 94 -42.0
83 95 57.0
83 96 47.0
83 97 49.0
83 98 98.0
83 99 26.0
83 100 28.0
83 101 91.0
83 102 -19.0
83 103 -95.0
83 104 34.0
83 105 62.0
83 106 -7.0
83 107 -71.0
83 108 30.0
83 109 38.0
83 110 -92.0
83 193 -1.0
84 91 -16.0
84 92 -34.0
84 93 -23.0
84 94 -72.0
84 95 -84.0
84 97 -87.0
84 98 -37.0
84 99 -10.0
84 100 32.0
84 101 98.0
84 102 92.0
84 103 60.0
84 104 56.0
84 105 91.0
84 106 34.0
84 107 -80.0
84 108 -67.0
84 109 -16.0
84 110 -15.0
84 194 -1.0
85 91 71.0
85 92 55.0
85 93 -95.0
85 94 -15.0
85 95 -54.0
85 96 61.0
85 97 -79.0
85 98 57.0
85 99 68.0
85 100 -71.0
85 101 -33.0
85 102 -45.0
85 103 -96.0
85 104 82.0
85 105 14.0
85 106 80.0
85 107 -98.0
85 108 3.0
85 109 89.0
85 110 63.0
85 195 -1.0
86 91 35.0
86 92 5.0
86 93 -55.0
86 94 -48.0
86 95 -21.0
86 96 79.0
86 97 -24.0
86 98 -51.0
86 99 22.0
86 100 -33.0
86 101 6.0
86 102 -67.0
86 103 83.0
86 104 -69.0
86 105 93.0
86 106 39.0
86 107 40.0
86 108 -20.0
86 109 90.0
86 110 99.0
86 196 -1.0
87 91 74.0
87 92 13.0
87 93 68.0
87 94 17.0
87 95 16.0
87 96 -3.0
87 97 -2.0
87 98 -17.0
87 99 -24.0
87 100 85.0
87 101 41.0
87 102 -98.0
87 103 -50.0
87 104 52.0
87 105 95.0
87 106 -53.0
87 107 88.0
87 108 -56.0
87 109 -98.0
87 110 -44.0
87 197 -1.0
88 91 86.0
88 92 53.0
88 93 -57.0
88 94 -10.0
88 95 59.0
88 97 -55.0
88 98 -80.0
88 99 61.0
88 100 -60.0
88 101 -57.0
88 102 16.0
88 103 71.0
88 104 -44.0
88 105 -12.0
88 106 -78.0
88 107 87.0
88 108 81.0
88 109 13.0
88 110 8.0
88 198 -1.0
89 91 -24.0
89 92 90.0
89 93 67.0
89 94 26.0
89 95 -59.0
89 96 -61.0
89 97 -60.0
89 98 12.0
89 99 41.0
89 100 -43.0
89 101 -23.0
89 102 -11.0
89 104 11.0
89 105 -43.0
89 106 90.0
89 107 -82.0
89 108 61.0
89 109 -97.0
89 110 -92.0
89 199 -1.0
90 91 -61.0
90 92 -42.0
90 93 -78.0
90 94 51.0
90 95 23.0
90 96 31.0
90 97 -81.0
90 98 98.0
90 99 -18.0
90 100 96.0
90 101 -14.0
90 102 -82.0
90 103 62.0
90 104 48.0
90 105 -65.0
90 106 -72.0
90 107 -61.0
90 108 20.0
90 109 -42.0
90 110 69.0
90 200 -1.0
91 1 -1.0
91 201 -1.0
92 2 -1.0
92 202 -1.0
93 3 -1.0
93 203 -1.0
94 4 -1.0
94 204 -1.0
95 5 -1.0
95 205 -1.0
96 6 -1.0
96 206 -1.0
97 7 -1.0
97 207 -1.0
98 8 -1.0
98 208 -1.0
99 9 -1.0
99 209 -1.0
100 10 -1.0
100 210 -1.0
101 11 -1.0
101 211 -1.0
102 12 -1.0
102 212 -1.0
103 13 -1.0
103 213 -1.0
104 14 -1.0
104 214 -1.0
105 15 -1.0
105 215 -1.0
106 16 -1.0
106 216 -1.0
107 17 -1.0
107 217 -1.0
108 18 -1.0
108 218 -1.0
109 19 -1.0
109 219 -1.0
110 20 -1.0
110 220 -1.0
111 21 -1.0
111 221 -1.0
112 22 -1.0
112 222 -1.0
113 23 -1.0
113 223 -1.0
114 24 -1.0
114 224 -1.0
115 25 -1.0
115 225 -1.0
116 26 -1.0
116 226 -1.0
117 27 -1.0
117 227 -1.0
118 28 -1.0
118 228 -1.0
119 29 -1.0
119 229 -1.0
120 30 -1.0
120 230 -1.0
121 31 -1.0
121 231 -1.0
122 32 -1.0
122 232 -1.0
123 33 -1.0
123 233 -1.0
124 34 -1.0
124 234 -1.0
125 35 -1.0
125 235 -1.0
126 36 -1.0
126 236 -1.0
127 37 -1.0
127 237 -1.0
128 38 -1.0
128 238 -1.0
129 39 -1.0
129 239 -1.0
130 40 -1.0
130 240 -1.0
131 41 -1.0
131 241 -1.0
132 42 -1.0
132 242 -1.0
133 43 -1.0
133 243 -1.0
134 44 -1.0
134 244 -1.0
135 45 -1.0
135 245 -1.0
136 46 -1.0
136 246 -1.0
137 47 -1.0
137 247 -1.0
138 48 -1.0
138 248 -1.0
139 49 -1.0
139 249 -1.0
140 50 -1.0
140 250 -1.0
141 51 -1.0
141 251 -1.0
142 52 -1.0
142 252 -1.0
143 53 -1.0
143 253 -1.0
144 54 -1.0
144 254 -1.0
145 55 -1.0
145 255 -1.0
146 56 -1.0
146 256 -1.0
147 57 -1.0
147 257 -1.0
148 58 -1.0
148 258 -1.0
149 59 -1.0
149 259 -1.0
150 60 -1.0
150 260 -1.0
151 61 -1.0
151 261 -1.0
152 62 -1.0
152 262 -1.0
153 63 -1.0
153 263 -1.0
154 64 -1.0
154 264 -1.0
155 65 -1.0
155 265 -1.0
156 66 -1.0
156 266 -1.0
157 67 -1.0
157 267 -1.0
158 68 -1.0
158 268 -1.0
159 69 -1.0
159 269 -1.0
160 70 -1.0
160 270 -1.0
161 71 -1.0
161 271 -1.0
162 72 -1.0
162 272 -1.0
163 73 -1.0
163 273 -1.0
164 74 -1.0
164 274 -1.0
165 75 -1.0
165 275 -1.0
166 76 -1.0
166 276 -1.0
167 77 -1.0
167 277 -1.0
168 78 -1.0
168 278 -1.0
169 79 -1.0
169 279 -1.0
170 80 -1.0
170 280 -1.0
171 81 -1.0
171 281 -1.0
172 82 -1.0
172 282 -1.0
173 83 -1.0
173 283 -1.0
174 84 -1.0
174 284 -1.0
175 85 -1.0
175 285 -1.0
176 86 -1.0
176 286 -1.0
177 87 -1.0
177 287 -1.0
178 88 -1.0
178 288 -1.0
179 89 -1.0
179 289 -1.0
180 90 -1.0
180 290 -1.0
1.79769313486232E+308 # value for infinity
0.0 # default left-hand-side value
180 # number of non-default left-hand-sides
1 -1.79769313486232E+308
2 -1.79769313486232E+308
3 -1.79769313486232E+308
4 -1.79769313486232E+308
5 -1.79769313486232E+308
6 -1.79769313486232E+308
7 -1.79769313486232E+308
8 -1.79769313486232E+308
9 -1.79769313486232E+308
10 -1.79769313486232E+308
11 -1.79769313486232E+308
12 -1.79769313486232E+308
13 -1.79769313486232E+308
14 -1.79769313486232E+308
15 -1.79769313486232E+308
16 -1.79769313486232E+308
17 -1.79769313486232E+308
18 -1.79769313486232E+308
19 -1.79769313486232E+308
20 -1.79769313486232E+308
21 -1.79769313486232E+308
22 -1.79769313486232E+308
23 -1.79769313486232E+308
24 -1.79769313486232E+308
25 -1.79769313486232E+308
26 -1.79769313486232E+308
27 -1.79769313486232E+308
28 -1.79769313486232E+308
29 -1.79769313486232E+308
30 -1.79769313486232E+308
31 -1.79769313486232E+308
32 -1.79769313486232E+308
33 -1.79769313486232E+308
34 -1.79769313486232E+308
35 -1.79769313486232E+308
36 -1.79769313486232E+308
37 -1.79769313486232E+308
38 -1.79769313486232E+308
39 -1.79769313486232E+308
40 -1.79769313486232E+308
41 -1.79769313486232E+308
42 -1.79769313486232E+308
43 -1.79769313486232E+308
44 -1.79769313486232E+308
45 -1.79769313486232E+308
46 -1.79769313486232E+308
47 -1.79769313486232E+308
48 -1.79769313486232E+308
49 -1.79769313486232E+308
50 -1.79769313486232E+308
51 -1.79769313486232E+308
52 -1.79769313486232E+308
53 -1.79769313486232E+308
54 -1.79769313486232E+308
55 -1.79769313486232E+308
56 -1.79769313486232E+308
57 -1.79769313486232E+308
58 -1.79769313486232E+308
59 -1.79769313486232E+308
60 -1.79769313486232E+308
61 -1.79769313486232E+308
62 -1.79769313486232E+308
63 -1.79769313486232E+308
64 -1.79769313486232E+308
65 -1.79769313486232E+308
66 -1.79769313486232E+308
67 -1.79769313486232E+308
68 -1.79769313486232E+308
69 -1.79769313486232E+308
70 -1.79769313486232E+308
71 -1.79769313486232E+308
72 -1.79769313486232E+308
73 -1.79769313486232E+308
74 -1.79769313486232E+308
75 -1.79769313486232E+308
76 -1.79769313486232E+308
77 -1.79769313486232E+308
78 -1.79769313486232E+308
79 -1.79769313486232E+308
80 -1.79769313486232E+308
81 -1.79769313486232E+308
82 -1.79769313486232E+308
83 -1.79769313486232E+308
84 -1.79769313486232E+308
85 -1.79769313486232E+308
86 -1.79769313486232E+308
87 -1.79769313486232E+308
88 -1.79769313486232E+308
89 -1.79769313486232E+308
90 -1.79769313486232E+308
91 -1.0
92 -1.0
93 -1.0
94 -1.0
95 -1.0
96 -1.0
97 -1.0
98 -1.0
99 -1.0
100 -1.0
101 -1.0
102 -1.0
103 -1.0
104 -1.0
105 -1.0
106 -1.0
107 -1.0
108 -1.0
109 -1.0
110 -1.0
111 -1.0
112 -1.0
113 -1.0
114 -1.0
115 -1.0
116 -1.0
117 -1.0
118 -1.0
119 -1.0
120 -1.0
121 -1.0
122 -1.0
123 -1.0
124 -1.0
125 -1.0
126 -1.0
127 -1.0
128 -1.0
129 -1.0
130 -1.0
131 -1.0
132 -1.0
133 -1.0
134 -1.0
135 -1.0
136 -1.0
137 -1.0
138 -1.0
139 -1.0
140 -1.0
141 -1.0
142 -1.0
143 -1.0
144 -1.0
145 -1.0
146 -1.0
147 -1.0
148 -1.0
149 -1.0
150 -1.0
151 -1.0
152 -1.0
153 -1.0
154 -1.0
155 -1.0
156 -1.0
157 -1.0
158 -1.0
159 -1.0
160 -1.0
161 -1.0
162 -1.0
163 -1.0
164 -1.0
165 -1.0
166 -1.0
167 -1.0
168 -1.0
169 -1.0
170 -1.0
171 -1.0
172 -1.0
173 -1.0
174 -1.0
175 -1.0
176 -1.0
177 -1.0
178 -1.0
179 -1.0
180 -1.0
0.0 # default right-hand-side value
180 # number of non-default right-hand-sides
1 -9.0
2 75.0
3 -73.0
4 13.0
5 37.0
6 68.0
7 -69.0
8 47.0
9 -100.0
10 -72.0
11 -2.0
12 -86.0
13 18.0
14 27.0
15 -3.0
16 -87.0
17 13.0
18 98.0
19 -71.0
20 11.0
21 33.0
22 79.0
23 -94.0
24 -64.0
25 -5.0
26 89.0
27 62.0
28 -14.0
29 80.0
30 21.0
31 -67.0
32 71.0
33 -16.0
34 -21.0
35 -38.0
36 -79.0
37 8.0
38 -8.0
39 36.0
40 22.0
41 -30.0
42 91.0
43 2.0
44 -4.0
45 -26.0
46 75.0
47 -83.0
48 97.0
49 20.0
50 15.0
51 -51.0
52 -42.0
53 -32.0
54 25.0
55 -27.0
56 71.0
57 -66.0
58 26.0
59 75.0
60 98.0
61 15.0
62 -56.0
63 -24.0
64 86.0
65 54.0
66 -6.0
67 72.0
68 10.0
69 -4.0
70 -95.0
71 57.0
72 -52.0
73 -11.0
74 93.0
75 16.0
76 54.0
77 79.0
78 76.0
79 35.0
80 -90.0
81 -84.0
82 51.0
83 79.0
84 38.0
85 -29.0
86 -24.0
87 4.0
88 53.0
89 24.0
90 49.0
91 -1.0
92 -1.0
93 -1.0
94 -1.0
95 -1.0
96 -1.0
97 -1.0
98 -1.0
99 -1.0
100 -1.0
101 -1.0
102 -1.0
103 -1.0
104 -1.0
105 -1.0
106 -1.0
107 -1.0
108 -1.0
109 -1.0
110 -1.0
111 -1.0
112 -1.0
113 -1.0
114 -1.0
115 -1.0
116 -1.0
117 -1.0
118 -1.0
119 -1.0
120 -1.0
121 -1.0
122 -1.0
123 -1.0
124 -1.0
125 -1.0
126 -1.0
127 -1.0
128 -1.0
129 -1.0
130 -1.0
131 -1.0
132 -1.0
133 -1.0
134 -1.0
135 -1.0
136 -1.0
137 -1.0
138 -1.0
139 -1.0
140 -1.0
141 -1.0
142 -1.0
143 -1.0
144 -1.0
145 -1.0
146 -1.0
147 -1.0
148 -1.0
149 -1.0
150 -1.0
151 -1.0
152 -1.0
153 -1.0
154 -1.0
155 -1.0
156 -1.0
157 -1.0
158 -1.0
159 -1.0
160 -1.0
161 -1.0
162 -1.0
163 -1.0
164 -1.0
165 -1.0
166 -1.0
167 -1.0
168 -1.0
169 -1.0
170 -1.0
171 -1.0
172 -1.0
173 -1.0
174 -1.0
175 -1.0
176 -1.0
177 -1.0
178 -1.0
179 -1.0
180 -1.0
-1.79769313486232E+308 # default variable lower bound value
180 # number of non-default variable lower bounds
1 0.0
2 0.0
3 0.0
4 0.0
5 0.0
6 0.0
7 0.0
8 0.0
9 0.0
10 0.0
11 0.0
12 0.0
13 0.0
14 0.0
15 0.0
16 0.0
17 0.0
18 0.0
19 0.0
20 0.0
21 0.0
22 0.0
23 0.0
24 0.0
25 0.0
26 0.0
27 0.0
28 0.0
29 0.0
30 0.0
31 0.0
32 0.0
33 0.0
34 0.0
35 0.0
36 0.0
37 0.0
38 0.0
39 0.0
40 0.0
41 0.0
42 0.0
43 0.0
44 0.0
45 0.0
46 0.0
47 0.0
48 0.0
49 0.0
50 0.0
51 0.0
52 0.0
53 0.0
54 0.0
55 0.0
56 0.0
57 0.0
58 0.0
59 0.0
60 0.0
61 0.0
62 0.0
63 0.0
64 0.0
65 0.0
66 0.0
67 0.0
68 0.0
69 0.0
70 0.0
71 0.0
72 0.0
73 0.0
74 0.0
75 0.0
76 0.0
77 0.0
78 0.0
79 0.0
80 0.0
81 0.0
82 0.0
83 0.0
84 0.0
85 0.0
86 0.0
87 0.0
88 0.0
89 0.0
90 0.0
111 0.0
112 0.0
113 0.0
114 0.0
115 0.0
116 0.0
117 0.0
118 0.0
119 0.0
120 0.0
121 0.0
122 0.0
123 0.0
124 0.0
125 0.0
126 0.0
127 0.0
128 0.0
129 0.0
130 0.0
131 0.0
132 0.0
133 0.0
134 0.0
135 0.0
136 0.0
137 0.0
138 0.0
139 0.0
140 0.0
141 0.0
142 0.0
143 0.0
144 0.0
145 0.0
146 0.0
147 0.0
148 0.0
149 0.0
150 0.0
151 0.0
152 0.0
153 0.0
154 0.0
155 0.0
156 0.0
157 0.0
158 0.0
159 0.0
160 0.0
161 0.0
162 0.0
163 0.0
164 0.0
165 0.0
166 0.0
167 0.0
168 0.0
169 0.0
170 0.0
171 0.0
172 0.0
173 0.0
174 0.0
175 0.0
176 0.0
177 0.0
178 0.0
179 0.0
180 0.0
181 0.0
182 0.0
183 0.0
184 0.0
185 0.0
186 0.0
187 0.0
188 0.0
189 0.0
190 0.0
191 0.0
192 0.0
193 0.0
194 0.0
195 0.0
196 0.0
197 0.0
198 0.0
199 0.0
200 0.0
1.79769313486232E+308 # default variable upper bound value
90 # number of non-default variable upper bounds
1 1.0
2 1.0
3 1.0
4 1.0
5 1.0
6 1.0
7 1.0
8 1.0
9 1.0
10 1.0
11 1.0
12 1.0
13 1.0
14 1.0
15 1.0
16 1.0
17 1.0
18 1.0
19 1.0
20 1.0
21 1.0
22 1.0
23 1.0
24 1.0
25 1.0
26 1.0
27 1.0
28 1.0
29 1.0
30 1.0
31 1.0
32 1.0
33 1.0
34 1.0
35 1.0
36 1.0
37 1.0
38 1.0
39 1.0
40 1.0
41 1.0
42 1.0
43 1.0
44 1.0
45 1.0
46 1.0
47 1.0
48 1.0
49 1.0
50 1.0
51 1.0
52 1.0
53 1.0
54 1.0
55 1.0
56 1.0
57 1.0
58 1.0
59 1.0
60 1.0
61 1.0
62 1.0
63 1.0
64 1.0
65 1.0
66 1.0
67 1.0
68 1.0
69 1.0
70 1.0
71 1.0
72 1.0
73 1.0
74 1.0
75 1.0
76 1.0
77 1.0
78 1.0
79 1.0
80 1.0
81 1.0
82 1.0
83 1.0
84 1.0
85 1.0
86 1.0
87 1.0
88 1.0
89 1.0
90 1.0
0 # default variable type
90 # number of non-default variable types
1 1
2 1
3 1
4 1
5 1
6 1
7 1
8 1
9 1
10 1
11 1
12 1
13 1
14 1
15 1
16 1
17 1
18 1
19 1
20 1
21 1
22 1
23 1
24 1
25 1
26 1
27 1
28 1
29 1
30 1
31 1
32 1
33 1
34 1
35 1
36 1
37 1
38 1
39 1
40 1
41 1
42 1
43 1
44 1
45 1
46 1
47 1
48 1
49 1
50 1
51 1
52 1
53 1
54 1
55 1
56 1
57 1
58 1
59 1
60 1
61 1
62 1
63 1
64 1
65 1
66 1
67 1
68 1
69 1
70 1
71 1
72 1
73 1
74 1
75 1
76 1
77 1
78 1
79 1
80 1
81 1
82 1
83 1
84 1
85 1
86 1
87 1
88 1
89 1
90 1
0.0 # default variable primal value in starting point
0 # number of non-default variable primal values in starting point
0.0 # default constraint dual value in starting point
0 # number of non-default constraint dual values in starting point
0.0 # default variable bound dual value in starting point
0 # number of non-default variable bound dual values in starting point
0 # number of non-default variable names
0 # number of non-default constraint names
